20J7M/DAT/20J7MUNL-8.dat
20 7
32.4739 32.4739
14.3574 14.3574
29.4473 29.4473
18.5159 18.5159
45.4038 45.4038
47.8823 47.8823
49.4857 49.4857
16.7507 16.7507
1.5696 1.5696
12.5143 12.5143
40.4405 40.4405
40.1515 40.1515
48.2315 48.2315
31.1452 31.1452
13.858 13.858
33.255 33.255
27.7778 27.7778
37.8712 37.8712
3.5869 3.5869
21.7822 21.7822
566.5007