20J7M/SOL/20J7MUNL-8.sol
solution status: optimal solution found
objective value:                     66.5787857142857
x#1#7                                               1 	(obj:0)
x#2#4                                               1 	(obj:0)
x#3#2                               0.662549330202834 	(obj:0)
x#3#5                               0.337450669797166 	(obj:0)
x#4#4                                               1 	(obj:0)
x#5#5                                               1 	(obj:0)
x#6#2                                               1 	(obj:0)
x#7#3                                               1 	(obj:0)
x#8#4                                               1 	(obj:0)
x#9#4                                               1 	(obj:0)
x#10#1                              0.897415915395285 	(obj:0)
x#10#4                              0.102584084604715 	(obj:0)
x#11#1                                              1 	(obj:0)
x#12#1                              0.795399809898496 	(obj:0)
x#12#2                              0.204600190101504 	(obj:0)
x#13#2                              0.611101461934967 	(obj:0)
x#13#6                              0.388898538065033 	(obj:0)
x#14#5                                              1 	(obj:0)
x#15#4                                              1 	(obj:0)
x#16#5                                              1 	(obj:0)
x#17#3                              0.666953644362282 	(obj:0)
x#17#7                              0.333046355637718 	(obj:0)
x#18#6                                              1 	(obj:0)
x#19#6                              0.782949973890409 	(obj:0)
x#19#7                              0.217050026109591 	(obj:0)
x#20#5                                              1 	(obj:0)
z                                    66.5787857142857 	(obj:1)
